1819, 0, 0, 56, 2
1820, 0, 1, 72, 0
1821, 0, 2, 44, 1
1822, 0, 3, 61, 3
1823, 1, 0, 49, 3
1824, 1, 1, 70, 2
1825, 1, 2, 86, 0
1826, 1, 3, 82, 1
1827, 2, 0, 92, 1
1828, 2, 1, 43, 0
1829, 2, 2, 82, 2
1830, 2, 3, 47, 3
1831, 3, 0, 38, 3
1832, 3, 1, 91, 2
1833, 3, 2, 90, 0
1834, 3, 3, 59, 1
